222 5
10 10 10 10 10 

0 0 0 0 0 0 2 2 54 
0 0 0 0 0 0 5 3 4 5 7 13 
8 1 5 2 2 2 4 18 16 12 8 
6 5 2 6 2 3 4 18 16 11 9 
8 7 2 5 3 3 1 6 
2 6 7 2 4 4 3 18 16 9 
9 4 4 4 10 8 2 18 9 
4 6 2 4 5 4 1 9 
3 6 3 4 3 4 1 10 
4 7 6 8 5 4 4 22 21 20 14 
7 4 5 6 3 4 3 21 20 15 
1 6 7 10 8 7 2 21 15 
6 2 5 6 5 4 2 18 17 
2 6 4 5 5 3 1 15 
10 5 5 4 4 2 1 17 
5 6 7 2 5 4 1 17 
2 6 5 7 6 3 4 29 28 23 19 
3 6 5 3 10 5 2 23 19 
3 4 3 8 7 1 2 25 24 
10 5 5 10 5 6 2 29 23 
9 3 3 5 3 4 1 23 
1 5 4 2 3 6 2 24 69 
10 3 10 6 9 6 1 26 
1 5 3 3 5 5 1 26 
2 4 1 6 5 9 1 26 
5 6 5 4 4 7 1 27 
4 3 6 7 9 4 2 35 30 
7 5 6 6 5 3 3 35 33 31 
10 5 2 5 6 5 1 30 
10 7 8 5 5 3 2 33 31 
2 3 7 4 4 6 1 32 
10 2 3 1 3 9 3 39 36 34 
5 8 2 4 3 10 3 41 36 34 
2 4 7 7 9 2 2 43 37 
3 4 9 2 5 3 2 41 36 
10 5 6 5 4 6 1 38 
1 4 6 4 6 9 1 38 
4 10 6 4 6 4 1 40 
4 4 7 2 4 6 1 41 
10 7 6 3 1 8 1 42 
6 3 4 10 7 4 1 42 
10 3 2 3 8 7 1 44 
7 6 4 6 5 5 1 44 
5 7 10 6 7 4 1 45 
3 5 7 5 5 4 2 49 46 
4 6 2 6 5 5 2 48 47 
2 2 7 8 5 8 2 52 50 
9 4 2 4 2 6 2 52 51 
1 9 6 4 4 3 1 50 
7 4 6 6 4 6 1 51 
10 7 4 7 2 7 1 53 
3 5 7 4 5 5 1 53 
0 0 0 0 0 0 1 222 
0 0 0 0 0 0 4 55 58 60 218 
5 0 1 0 0 0 2 59 56 
8 0 5 0 0 0 1 57 
8 0 1 0 0 0 3 64 63 61 
9 0 5 0 0 0 1 59 
8 0 8 0 0 0 2 63 61 
10 0 5 0 0 0 1 61 
1 0 6 0 0 0 1 62 
10 0 9 0 0 0 1 65 
5 0 3 0 0 0 1 65 
8 0 7 0 0 0 1 65 
0 0 0 0 0 0 2 66 78 
0 0 0 0 0 0 2 67 69 
10 0 0 0 0 1 2 68 168 
5 0 0 0 0 3 2 71 70 
2 0 0 0 0 4 2 72 70 
7 0 0 0 0 6 2 74 73 
6 0 0 0 0 5 2 74 73 
8 0 0 0 0 7 2 74 73 
7 0 0 0 0 5 1 76 
3 0 0 0 0 6 1 75 
8 0 0 0 0 10 1 77 
5 0 0 0 0 3 1 77 
0 0 0 0 0 0 2 120 152 
0 0 0 0 0 0 2 79 80 
8 2 1 0 1 1 1 81 
6 4 3 0 4 6 1 81 
9 3 5 0 6 5 2 83 82 
8 8 5 0 8 5 4 88 87 86 84 
8 6 6 0 4 7 4 88 87 86 85 
10 6 2 0 7 8 1 85 
2 6 5 0 7 3 3 91 90 89 
6 2 6 0 4 6 3 91 90 89 
7 4 2 0 6 3 3 91 90 89 
9 4 4 0 4 3 1 89 
4 7 6 0 5 3 2 95 92 
7 4 9 0 5 4 2 95 92 
2 3 8 0 5 3 2 95 92 
8 5 8 0 3 7 1 93 
3 4 3 0 5 7 1 94 
10 4 7 0 3 5 2 97 96 
4 5 10 0 4 4 1 96 
9 10 4 0 6 5 3 100 99 98 
4 7 6 0 3 5 2 100 99 
5 10 4 0 2 4 3 106 103 101 
8 8 3 0 4 2 2 103 101 
9 4 7 0 2 8 3 106 105 102 
6 7 7 0 8 7 1 102 
7 5 5 0 5 8 3 108 104 135 
7 2 6 0 4 4 1 105 
9 5 4 0 2 4 2 109 107 
1 2 4 0 5 7 2 109 107 
4 5 5 0 4 5 2 110 108 
5 6 5 0 9 7 1 110 
3 2 1 0 5 6 1 109 
8 5 5 0 7 5 3 113 112 111 
8 4 7 0 5 6 3 113 112 111 
9 7 3 0 6 6 2 115 114 
6 5 4 0 5 7 2 115 114 
7 4 4 0 7 4 2 115 114 
5 6 9 0 7 4 2 118 116 
6 3 5 0 4 2 2 118 117 
1 5 3 0 7 4 1 117 
3 7 6 0 3 5 1 119 
10 4 3 0 9 5 1 119 
0 0 0 0 0 0 1 222 
0 0 0 0 0 0 3 121 122 124 
5 0 0 1 2 3 2 127 123 
6 0 0 3 2 4 2 127 123 
6 0 0 4 6 2 2 128 125 
5 0 0 3 3 6 3 128 127 157 
3 0 0 7 8 2 1 126 
2 0 0 6 4 6 2 130 129 
8 0 0 5 5 4 2 130 129 
9 0 0 6 2 1 2 132 130 
1 0 0 6 4 7 2 132 131 
10 0 0 4 4 3 1 131 
2 0 0 6 3 7 2 135 133 
9 0 0 5 7 8 1 133 
8 0 0 4 4 4 2 138 134 
1 0 0 3 5 6 2 137 136 
5 0 0 6 7 3 2 142 138 
4 0 0 7 10 7 2 142 139 
3 0 0 4 6 5 2 142 139 
10 0 0 4 7 10 1 139 
3 0 0 3 4 7 1 140 
8 0 0 4 5 6 1 141 
8 0 0 4 5 5 2 146 143 
4 0 0 4 5 5 1 143 
10 0 0 4 5 4 4 150 149 145 144 
5 0 0 9 2 2 1 148 
6 0 0 7 5 8 1 147 
4 0 0 6 9 4 1 147 
6 0 0 8 4 2 1 151 
2 0 0 3 5 4 1 151 
3 0 0 8 6 5 1 151 
9 0 0 6 6 10 1 151 
0 0 0 0 0 0 1 222 
0 0 0 0 0 0 4 153 154 157 159 
3 0 0 0 1 0 3 162 161 155 
10 0 0 0 5 0 3 162 156 207 
9 0 0 0 4 0 1 156 
8 0 0 0 5 0 1 158 
3 0 0 0 5 0 1 158 
5 0 0 0 7 0 1 160 
9 0 0 0 6 0 1 161 
4 0 0 0 2 0 1 163 
4 0 0 0 8 0 1 163 
8 0 0 0 7 0 1 163 
0 0 0 0 0 0 2 164 186 
0 0 0 0 0 0 1 165 
9 0 0 0 1 1 2 168 166 
3 0 0 0 4 5 1 167 
8 0 0 0 3 5 2 173 169 
8 0 0 0 2 4 2 173 169 
10 0 0 0 7 2 1 170 
7 0 0 0 7 5 5 184 183 177 176 171 
9 0 0 0 5 5 3 182 181 172 
3 0 0 0 6 4 2 179 174 
5 0 0 0 7 6 4 181 180 179 178 
5 0 0 0 5 8 2 180 175 
2 0 0 0 5 5 1 178 
6 0 0 0 8 4 1 179 
3 0 0 0 6 7 1 178 
6 0 0 0 2 5 1 185 
3 0 0 0 3 6 1 185 
6 0 0 0 9 6 1 185 
7 0 0 0 3 5 1 185 
2 0 0 0 8 4 1 185 
7 0 0 0 2 5 1 185 
5 0 0 0 7 8 1 185 
0 0 0 0 0 0 1 222 
0 0 0 0 0 0 3 187 191 196 
7 1 0 0 0 0 2 195 188 
9 2 0 0 0 0 1 189 
4 6 0 0 0 0 1 190 
3 8 0 0 0 0 2 193 192 
2 4 0 0 0 0 2 194 192 
1 5 0 0 0 0 1 197 
4 9 0 0 0 0 1 197 
9 3 0 0 0 0 1 197 
1 9 0 0 0 0 1 197 
4 3 0 0 0 0 1 197 
0 0 0 0 0 0 2 198 210 
0 0 0 0 0 0 1 199 
3 0 0 0 1 0 3 202 201 200 
2 0 0 0 4 0 2 204 203 
6 0 0 0 3 0 1 203 
1 0 0 0 5 0 1 203 
1 0 0 0 7 0 2 206 205 
7 0 0 0 7 0 2 206 205 
8 0 0 0 9 0 2 208 207 
9 0 0 0 5 0 2 208 207 
8 0 0 0 6 0 1 209 
7 0 0 0 3 0 1 209 
0 0 0 0 0 0 1 222 
0 0 0 0 0 0 3 211 212 214 
5 1 0 0 0 0 2 217 215 
7 4 0 0 0 0 2 215 213 
9 8 0 0 0 0 2 219 216 
9 4 0 0 0 0 2 218 217 
4 3 0 0 0 0 1 216 
4 8 0 0 0 0 1 218 
1 4 0 0 0 0 1 219 
5 4 0 0 0 0 1 220 
2 7 0 0 0 0 1 220 
4 7 0 0 0 0 1 221 
0 0 0 0 0 0 1 222 
0 0 0 0 0 0 0 
